unsat
(:cnf-encoding-aux-vars 78
 :eliminated-vars       78
 :max-memory            18.56
 :memory                18.34
 :nlsat-conflicts       10
 :nlsat-decisions       9
 :nlsat-propagations    52
 :num-allocs            99070
 :rlimit-count          45209
 :time                  0.01
 :total-time            0.03)
